num_features = 48;
num_usage_limits = 5;
num_plans = 4;
num_addons = 0;

features = ["contacts","audiences","audienceDashboard","tags","segmentation","purchaseBehavior","marketingEngagement","customEventData","contactProfiles","predictedDemographics","customerLifetimeValue","purchaseLikelihood","lookalikeAudienceFinder","addressFinder","contentAudio","basicTemplates","allPrebuiltTemplates","removeMailchimpFooter","customCodedTemplates","buildAndPublishWebsite","siteAnalytics","freeMailchimpDomain","buyCustomDomain","connectAnExistingDomain","emailMarketing","landingPages","facebookAds","instagramAds","socialPostScheduling","postCards","popupForms","retargetingAds","singleStepAutomations","multiStepCustomWorkflows","basicReports","smartRecommendations","sendTimeOptimization","deliveryByTimezone","abTesting","multivarianteTesting","comparativeReporting","knowledgeBase","30DayEmailSupport","24/7EmailSupport","24/7ChatSupport","phoneSupport","integrations","mailchipMobileApp"];
usage_limits = ["contactsLimit","audiencesLimit","customEventDataThreshold","seatsLimit","monthlyEmailSends"];
plans = ["FREE","ESSENTIALS","STANDARD","PREMIUM"];
addons = [];

plans_prices = [0,9.99,14.99,299];
addons_prices = [];

linked_features = array2d(USAGE_LIMITS, FEATURES, [
    % contactsLimit
    1,0,0,0,0,0,0,0,0,0,0,0,0,0,0,0,0,0,0,0,0,0,0,0,0,0,0,0,0,0,0,0,0,0,0,0,0,0,0,0,0,0,0,0,0,0,0,0,
    % audiencesLimit
    0,1,0,0,0,0,0,0,0,0,0,0,0,0,0,0,0,0,0,0,0,0,0,0,0,0,0,0,0,0,0,0,0,0,0,0,0,0,0,0,0,0,0,0,0,0,0,0,
    % customEventDataThreshold
    0,0,0,0,0,0,0,1,0,0,0,0,0,0,0,0,0,0,0,0,0,0,0,0,0,0,0,0,0,0,0,0,0,0,0,0,0,0,0,0,0,0,0,0,0,0,0,0,
    % seatsLimit
    0,0,0,0,0,0,0,0,0,0,0,0,0,0,0,0,0,0,0,0,0,0,0,0,0,0,0,0,0,0,0,0,0,0,0,0,0,0,0,0,0,0,0,0,0,0,0,0,
    % monthlyEmailSends
    0,0,0,0,0,0,0,0,0,0,0,0,0,0,0,0,0,0,0,0,0,0,0,0,1,0,0,0,0,0,0,0,0,0,0,0,0,0,0,0,0,0,0,0,0,0,0,0
]);

plans_features = array2d(PLANS, FEATURES, [
    % FREE
    1,1,1,1,1,1,1,1,1,0,0,0,0,0,1,1,0,0,0,1,1,1,0,0,1,1,1,1,0,1,1,0,1,0,1,1,0,0,0,0,0,1,1,0,0,0,1,1,
    % ESSENTIALS
    1,1,1,1,1,1,1,1,1,0,0,0,0,0,1,1,1,1,0,1,1,1,0,0,1,1,1,1,0,1,1,0,1,0,1,1,0,0,1,0,0,1,1,1,1,0,1,1,
    % STANDARD
    1,1,1,1,1,1,1,1,1,1,1,1,1,1,1,1,1,1,1,1,1,1,1,1,1,1,1,1,1,1,1,1,1,1,1,1,1,1,1,0,0,1,1,1,1,0,1,1,
    % PREMIUM
    1,1,1,1,1,1,1,1,1,1,1,1,1,1,1,1,1,1,1,1,1,1,1,1,1,1,1,1,1,1,1,1,1,1,1,1,1,1,1,1,1,1,1,1,1,1,1,1
]);
plans_usage_limits = array2d(PLANS, USAGE_LIMITS, [
    % FREE
    2000,1,30,1,10000,
    % ESSENTIALS
    50000,3,30,3,500000,
    % STANDARD
    100000,5,90,5,1200000,
    % PREMIUM
    200000,100000000,540,100000000,3000000
]);

addons_features = array2d(ADDONS, FEATURES, [
]);
addons_usage_limits = array2d(ADDONS, USAGE_LIMITS, [
]);
addons_usage_limits_extensions = array2d(ADDONS, USAGE_LIMITS, [
]);
addons_available_for = array2d(ADDONS, PLANS, [
]);
addons_depends_on = array2d(ADDONS, ADDONS, [
]);
